Route 1: 0 96 2 78 14 80 19 37 88 99 93 0
Route 2: 0 92 72 27 100 94 65 57 0
Route 3: 0 81 90 59 33 38 89 34 49 43 53 67 0
Route 4: 0 26 62 18 40 75 48 6 7 39 0
Route 5: 0 15 91 97 28 71 52 95 68 35 0
Route 6: 0 50 16 44 4 77 8 46 54 31 79 30 42 0
Route 7: 0 10 55 24 23 73 86 0
Route 8: 0 98 20 56 74 51 21 64 0
Route 9: 0 70 61 29 5 85 47 82 58 12 36 60 41 0
Route 10: 0 9 87 11 63 76 32 13 0
Route 11: 0 84 69 45 83 66 22 0
Route 12: 0 1 17 3 25 0
